Running for instance ./models/c208.txt
Generating routes...
Execution time:  2.849534  seconds
Academic license - for non-commercial use only
Warning: constraint name "Cliente esta na rota x1" has a space
Optimize a model with 26 rows, 10000 columns and 75121 nonzeros
Variable types: 0 continuous, 10000 integer (0 binary)
Coefficient statistics:
  Matrix range     [1e+00, 1e+00]
  Objective range  [2e+01, 3e+02]
  Bounds range     [1e+00, 1e+00]
  RHS range        [1e+00, 2e+01]
Found heuristic solution: objective 523.5932494
Presolve removed 3 rows and 4706 columns
Presolve time: 0.08s
Presolved: 23 rows, 5294 columns, 35425 nonzeros
Found heuristic solution: objective 368.2461083
Variable types: 0 continuous, 5294 integer (5294 binary)

Root relaxation: objective 2.924786e+02, 85 iterations, 0.01 seconds

    Nodes    |    Current Node    |     Objective Bounds      |     Work
 Expl Unexpl |  Obj  Depth IntInf | Incumbent    BestBd   Gap | It/Node Time

     0     0  292.47864    0   20  368.24611  292.47864  20.6%     -    0s
H    0     0                     304.0369710  292.47864  3.80%     -    0s
     0     0  302.91718    0   13  304.03697  302.91718  0.37%     -    0s
*    0     0               0     303.7467106  303.74671  0.00%     -    0s

Explored 1 nodes (118 simplex iterations) in 0.18 seconds
Thread count was 8 (of 8 available processors)

Solution count 3: 303.747 304.037 368.246 

Optimal solution found (tolerance 1.00e-04)
Best objective 3.037467106344e+02, best bound 3.037467106344e+02, gap 0.0000%

Routes:
22 24 6 25 17 15 13 9 10 11 8 21
5 1 2 7 3 4
20 23 18 19 16 12 14

Distance: 303.746710634
Execution time:  3.993752  seconds
